50
150 150
1 104 18
2 104 777
3 103 517
4 103 804
5 103 365
6 102 432
7 101 601
8 99 342
9 98 339
10 98 951
11 98 652
12 94 486
13 93 374
14 91 168
15 85 807
16 83 497
17 82 287
18 80 215
19 78 223
20 76 745
21 76 613
22 74 788
23 73 683
24 73 183
25 71 635
26 68 941
27 67 881
28 67 410
29 66 423
30 66 804
31 65 184
32 61 210
33 58 72
34 57 148
35 56 465
36 52 387
37 45 134
38 44 902
39 43 169
40 42 701
41 39 710
42 35 265
43 33 230
44 30 360
45 29 796
46 29 827
47 27 570
48 24 674
49 18 71
50 15 377
